(set-logic HORN)
(declare-fun assign_35_8_266_abs0 (Int Int Int Int Int) Bool)
(declare-fun assert_34_8_257_abs0 (Int Int Int Int Int) Bool)
(declare-fun while_31_6_269_abs0 (Int Int Int Int Int) Bool)
(declare-fun assign_30_6_200_abs0 (Int Int Int Int Int) Bool)
(declare-fun assign_26_8_191_abs0 (Int Int Int Int Int) Bool)
(declare-fun arrayassign_25_8_182_abs0 (Int Int Int Int Int) Bool)
(declare-fun while_22_6_194_abs0 (Int Int Int Int Int) Bool)
(declare-fun assign_21_6_125_abs0 (Int Int Int Int Int) Bool)
(declare-fun assign_17_8_116_abs0 (Int Int Int Int Int) Bool)
(declare-fun arrayassign_16_8_107_abs0 (Int Int Int Int Int) Bool)
(declare-fun assign_15_8_94_abs0 (Int Int Int Int Int) Bool)
(declare-fun while_12_6_119_abs0 (Int Int Int Int Int) Bool)
(declare-fun assign_11_6_42_abs0 (Int Int Int Int Int) Bool)
(declare-fun assign_8_6_36_abs0 (Int Int Int Int Int) Bool)
(declare-fun end_abs0 (Int Int Int Int Int) Bool)
(declare-fun start_abs0 (Int Int Int Int Int) Bool)
(assert (forall ((v Int) (N Int) (i Int) (vabs_f_f Int) (a_select Int)) (start_abs0 vabs_f_f a_select v N i)))
(assert (forall ((i Int) (N Int) (v Int) (vabs_0_f_f Int) (a_select Int)) (=> (start_abs0 vabs_0_f_f a_select v N i) (assign_8_6_36_abs0 vabs_0_f_f a_select v N i))))
(assert (forall ((rnd Int) (i Int) (N Int) (v Int) (vabs_0_f_f Int) (a_select Int)) (=> (assign_8_6_36_abs0 vabs_0_f_f a_select v N i) (assign_11_6_42_abs0 vabs_0_f_f a_select v rnd i))))
(assert (forall ((i Int) (N Int) (v Int) (vabs_0_f_f Int) (a_select Int)) (=> (assign_11_6_42_abs0 vabs_0_f_f a_select v N i) (while_12_6_119_abs0 vabs_0_f_f a_select v N 0))))
(assert (forall ((v Int) (N Int) (i Int) (vabs_0_f_f Int) (a_select Int)) (=> (and (while_12_6_119_abs0 vabs_0_f_f a_select v N i) (< i N)) (assign_15_8_94_abs0 vabs_0_f_f a_select v N i))))
(assert (forall ((v Int) (N Int) (i Int) (vabs_0_f_f Int) (a_select Int)) (=> (and (while_12_6_119_abs0 vabs_0_f_f a_select v N i) (not (< i N))) (assign_21_6_125_abs0 vabs_0_f_f a_select v N i))))
(assert (forall ((rnd Int) (i Int) (N Int) (v Int) (vabs_0_f_f Int) (a_select Int)) (=> (assign_15_8_94_abs0 vabs_0_f_f a_select v N i) (arrayassign_16_8_107_abs0 vabs_0_f_f a_select rnd N i))))
(assert (forall ((i Int) (N Int) (v Int) (vabs_0_f_f Int) (a_select Int)) (=> (arrayassign_16_8_107_abs0 vabs_0_f_f a_select v N i) (assign_17_8_116_abs0 vabs_0_f_f (ite (= i vabs_0_f_f) (* v 2) a_select) v N i))))
(assert (forall ((i Int) (N Int) (v Int) (vabs_0_f_f Int) (a_select Int)) (=> (assign_17_8_116_abs0 vabs_0_f_f a_select v N i) (while_12_6_119_abs0 vabs_0_f_f a_select v N (+ i 1)))))
(assert (forall ((i Int) (N Int) (v Int) (vabs_0_f_f Int) (a_select Int)) (=> (assign_21_6_125_abs0 vabs_0_f_f a_select v N i) (while_22_6_194_abs0 vabs_0_f_f a_select v N 0))))
(assert (forall ((v Int) (N Int) (i Int) (vabs_0_f_f Int) (a_select Int)) (=> (and (while_22_6_194_abs0 vabs_0_f_f a_select v N i) (< i N)) (arrayassign_25_8_182_abs0 vabs_0_f_f a_select v N i))))
(assert (forall ((v Int) (N Int) (i Int) (vabs_0_f_f Int) (a_select Int)) (=> (and (while_22_6_194_abs0 vabs_0_f_f a_select v N i) (not (< i N))) (assign_30_6_200_abs0 vabs_0_f_f a_select v N i))))
(assert (forall ((i Int) (N Int) (v Int) (vabs_0_f_f Int) (a_select_0 Int) (a_select Int)) (=> (and (=> (= i vabs_0_f_f) (= a_select a_select_0)) (arrayassign_25_8_182_abs0 vabs_0_f_f a_select v N i) (arrayassign_25_8_182_abs0 i a_select_0 v N i)) (assign_26_8_191_abs0 vabs_0_f_f (ite (= i vabs_0_f_f) (+ a_select_0 1) a_select) v N i))))
(assert (forall ((i Int) (N Int) (v Int) (vabs_0_f_f Int) (a_select Int)) (=> (assign_26_8_191_abs0 vabs_0_f_f a_select v N i) (while_22_6_194_abs0 vabs_0_f_f a_select v N (+ i 1)))))
(assert (forall ((i Int) (N Int) (v Int) (vabs_0_f_f Int) (a_select Int)) (=> (assign_30_6_200_abs0 vabs_0_f_f a_select v N i) (while_31_6_269_abs0 vabs_0_f_f a_select v N 0))))
(assert (forall ((v Int) (N Int) (i Int) (vabs_0_f_f Int) (a_select Int)) (=> (and (while_31_6_269_abs0 vabs_0_f_f a_select v N i) (< i N)) (assert_34_8_257_abs0 vabs_0_f_f a_select v N i))))
(assert (forall ((v Int) (N Int) (i Int) (vabs_0_f_f Int) (a_select Int)) (=> (and (while_31_6_269_abs0 vabs_0_f_f a_select v N i) (not (< i N))) (end_abs0 vabs_0_f_f a_select v N i))))
(assert (forall ((i Int) (N Int) (v Int) (a_select Int)) (=> (assert_34_8_257_abs0 i a_select v N i) (= (mod a_select 2) 1))))
(assert (forall ((i Int) (N Int) (v Int) (vabs_0_f_f Int) (a_select Int)) (=> (assert_34_8_257_abs0 vabs_0_f_f a_select v N i) (assign_35_8_266_abs0 vabs_0_f_f a_select v N i))))
(assert (forall ((i Int) (N Int) (v Int) (vabs_0_f_f Int) (a_select Int)) (=> (assign_35_8_266_abs0 vabs_0_f_f a_select v N i) (while_31_6_269_abs0 vabs_0_f_f a_select v N (+ i 1)))))
(check-sat)